(set-logic QF_UF)
(declare-fun A0 () Bool)
(declare-fun A1 () Bool)
(declare-fun A2 () Bool)
(declare-fun A3 () Bool)
(declare-fun A4 () Bool)
(declare-fun A5 () Bool)
(declare-fun A6 () Bool)
(declare-fun A7 () Bool)
(declare-fun A8 () Bool)
(declare-fun A9 () Bool)
(declare-fun A10 () Bool)
(declare-fun A11 () Bool)
(declare-fun A12 () Bool)
(declare-fun A13 () Bool)
(declare-fun A14 () Bool)
(declare-fun A15 () Bool)
(declare-fun A16 () Bool)
(declare-fun A17 () Bool)
(declare-fun A19 () Bool)
(declare-fun A20 () Bool)
(declare-fun A21 () Bool)
(declare-fun A22 () Bool)
(declare-fun A23 () Bool)
(declare-fun A24 () Bool)
(assert (let ((.def_0 (or A20 A17))) (let ((.def_1 (not A1))) (let ((.def_2 (and .def_1 A7))) (let ((.def_3 (not .def_2))) (let ((.def_4 (= .def_3 .def_0))) (let ((.def_5 (not .def_4))) (let ((.def_6 (not A4))) (let ((.def_7 (or A12 .def_6))) (let ((.def_8 (not .def_7))) (let ((.def_9 (not A14))) (let ((.def_10 (or .def_9 A12))) (let ((.def_11 (not .def_10))) (let ((.def_12 (or .def_11 .def_8))) (let ((.def_13 (not .def_12))) (let ((.def_14 (or .def_13 .def_5))) (let ((.def_15 (not .def_14))) (let ((.def_16 (= A12 A23))) (let ((.def_17 (not .def_16))) (let ((.def_18 (= .def_9 .def_6))) (let ((.def_19 (not .def_18))) (let ((.def_20 (and .def_19 .def_17))) (let ((.def_21 (not A15))) (let ((.def_22 (and A20 .def_21))) (let ((.def_23 (not A22))) (let ((.def_24 (and .def_23 A2))) (let ((.def_25 (or .def_24 .def_22))) (let ((.def_26 (and .def_25 .def_20))) (let ((.def_27 (or .def_26 .def_15))) (let ((.def_28 (or A2 A17))) (let ((.def_29 (not .def_28))) (let ((.def_30 (and A7 A20))) (let ((.def_31 (not .def_30))) (let ((.def_32 (or .def_31 .def_29))) (let ((.def_33 (or .def_9 A3))) (let ((.def_34 (not .def_33))) (let ((.def_35 (and A4 A0))) (let ((.def_36 (= .def_35 .def_34))) (let ((.def_37 (not .def_36))) (let ((.def_38 (or .def_37 .def_32))) (let ((.def_39 (and A4 A5))) (let ((.def_40 (not .def_39))) (let ((.def_41 (not A11))) (let ((.def_42 (and A3 .def_41))) (let ((.def_43 (not .def_42))) (let ((.def_44 (= .def_43 .def_40))) (let ((.def_45 (not .def_44))) (let ((.def_46 (not A8))) (let ((.def_47 (and .def_46 .def_6))) (let ((.def_48 (not .def_47))) (let ((.def_49 (not A9))) (let ((.def_50 (not A7))) (let ((.def_51 (and .def_50 .def_49))) (let ((.def_52 (not .def_51))) (let ((.def_53 (= .def_52 .def_48))) (let ((.def_54 (not .def_53))) (let ((.def_55 (or .def_54 .def_45))) (let ((.def_56 (and .def_55 .def_38))) (let ((.def_57 (or .def_56 .def_27))) (let ((.def_58 (not .def_57))) (let ((.def_59 (not A6))) (let ((.def_60 (and A16 .def_59))) (let ((.def_61 (not .def_60))) (let ((.def_62 (and A1 A24))) (let ((.def_63 (or .def_62 .def_61))) (let ((.def_64 (and A20 A23))) (let ((.def_65 (not .def_64))) (let ((.def_66 (or A2 A19))) (let ((.def_67 (not .def_66))) (let ((.def_68 (and .def_67 .def_65))) (let ((.def_69 (or .def_68 .def_63))) (let ((.def_70 (not .def_69))) (let ((.def_71 (and .def_6 .def_9))) (let ((.def_72 (not .def_71))) (let ((.def_73 (or A2 A2))) (let ((.def_74 (or .def_73 .def_72))) (let ((.def_75 (not .def_74))) (let ((.def_76 (not A21))) (let ((.def_77 (or .def_76 .def_59))) (let ((.def_78 (not A2))) (let ((.def_79 (and .def_78 .def_41))) (let ((.def_80 (not .def_79))) (let ((.def_81 (or .def_80 .def_77))) (let ((.def_82 (or .def_81 .def_75))) (let ((.def_83 (or .def_82 .def_70))) (let ((.def_84 (not A16))) (let ((.def_85 (or A10 .def_84))) (let ((.def_86 (not A3))) (let ((.def_87 (or .def_86 A11))) (let ((.def_88 (or .def_87 .def_85))) (let ((.def_89 (not .def_88))) (let ((.def_90 (not A13))) (let ((.def_91 (or .def_90 .def_1))) (let ((.def_92 (and A6 .def_49))) (let ((.def_93 (or .def_92 .def_91))) (let ((.def_94 (not .def_93))) (let ((.def_95 (and .def_94 .def_89))) (let ((.def_96 (not .def_95))) (let ((.def_97 (or A14 A6))) (let ((.def_98 (not .def_97))) (let ((.def_99 (not A23))) (let ((.def_100 (and A16 .def_99))) (let ((.def_101 (and .def_100 .def_98))) (let ((.def_102 (not A0))) (let ((.def_103 (or .def_78 .def_102))) (let ((.def_104 (not .def_103))) (let ((.def_105 (or .def_99 A22))) (let ((.def_106 (and .def_105 .def_104))) (let ((.def_107 (or .def_106 .def_101))) (let ((.def_108 (and .def_107 .def_96))) (let ((.def_109 (not .def_108))) (let ((.def_110 (or .def_109 .def_83))) (let ((.def_111 (or .def_110 .def_58))) .def_111)))))))))))))))))))))))))))))))))))))))))))))))))))))))))))))))))))))))))))))))))))))))))))))))))))))))))))))))))
(check-sat)
